1 1
2 0
3 1
4 2
5 4
6 2
7 1
8 1
9 1
10 3
11 4
12 1
13 1
14 0
15 0
16 0
17 1
18 2
19 2
20 4
21 2
22 2
23 2
24 1
25 0
26 0
27 3
28 0
29 0
30 2
31 1
32 1
33 1
34 4
35 2
36 1
37 4
38 4
39 1
40 2
41 3
42 3
43 3
44 0
45 3
46 2
47 3
48 0
49 2
50 0
51 4
52 4
53 4
54 3
55 4
56 3
57 4
58 0
59 1
60 2
61 2
62 2
63 3
64 2
65 3
66 3
67 0
68 0
69 4
70 2
71 1
72 4
73 2
74 4
75 1
76 3
77 3
78 1
79 2
80 2
81 1
82 3
83 2
84 0
85 0
86 4
87 2
88 2
89 1
90 3
91 3
92 1
93 4
94 0
95 4
96 0
97 1
98 4
99 0
100 3
101 4
102 2
103 2
104 1
105 4
106 1
107 1
108 1
109 3
110 4
111 3
112 2
113 3
114 1
115 0
116 2
117 1
118 1
119 3
120 4
121 0
122 2
123 0
124 0
125 1
